c Created with the Wolfram Language : www.wolfram.com
c 
p edge 80 630
e 1 2
e 2 5
e 3 5
e 4 5
e 5 6
e 5 7
e 2 8
e 3 8
e 2 9
e 1 10
e 4 11
e 5 12
e 3 13
e 9 13
e 2 14
e 4 14
e 7 14
e 8 15
e 11 15
e 12 15
e 1 16
e 6 16
e 14 16
e 15 16
e 6 17
e 10 17
e 12 17
e 4 18
e 8 18
e 10 18
e 7 19
e 15 19
e 16 19
e 5 20
e 19 20
e 3 21
e 6 21
e 8 21
e 12 22
e 16 22
e 19 22
e 3 23
e 22 23
e 1 24
e 3 24
e 9 24
e 10 24
e 13 24
e 17 24
e 2 25
e 6 25
e 9 25
e 11 25
e 15 25
e 19 25
e 20 25
e 1 26
e 4 26
e 6 26
e 9 26
e 19 26
e 20 26
e 2 27
e 12 27
e 13 27
e 15 27
e 25 27
e 2 28
e 13 28
e 17 28
e 24 28
e 25 28
e 26 28
e 8 29
e 12 29
e 15 29
e 1 30
e 4 30
e 6 30
e 13 30
e 15 30
e 23 30
e 26 30
e 28 30
e 29 30
e 4 31
e 6 31
e 16 31
e 23 31
e 24 31
e 25 31
e 26 31
e 27 31
e 28 31
e 3 32
e 5 32
e 6 32
e 10 32
e 15 32
e 20 32
e 21 32
e 16 33
e 18 33
e 32 33
e 5 34
e 8 34
e 11 34
e 12 34
e 13 34
e 14 34
e 15 34
e 18 34
e 22 34
e 26 34
e 5 35
e 13 35
e 14 35
e 15 35
e 16 35
e 19 35
e 28 35
e 4 36
e 5 36
e 6 36
e 9 36
e 24 36
e 29 36
e 30 36
e 35 36
e 3 37
e 11 37
e 14 37
e 32 37
e 10 38
e 27 38
e 32 38
e 37 38
e 9 39
e 21 39
e 23 39
e 30 39
e 38 39
e 4 40
e 5 40
e 6 40
e 8 40
e 10 40
e 11 40
e 13 40
e 22 40
e 23 40
e 28 40
e 30 40
e 39 40
e 1 41
e 9 41
e 16 41
e 18 41
e 20 41
e 24 41
e 26 41
e 37 41
e 7 42
e 14 42
e 21 42
e 24 42
e 31 42
e 38 42
e 39 42
e 9 43
e 16 43
e 35 43
e 36 43
e 42 43
e 6 44
e 8 44
e 12 44
e 14 44
e 23 44
e 29 44
e 37 44
e 7 45
e 8 45
e 11 45
e 18 45
e 19 45
e 20 45
e 22 45
e 24 45
e 38 45
e 43 45
e 44 45
e 2 46
e 19 46
e 25 46
e 30 46
e 33 46
e 1 47
e 11 47
e 13 47
e 16 47
e 19 47
e 20 47
e 41 47
e 42 47
e 3 48
e 16 48
e 29 48
e 33 48
e 38 48
e 39 48
e 40 48
e 47 48
e 1 49
e 5 49
e 9 49
e 11 49
e 18 49
e 23 49
e 26 49
e 31 49
e 34 49
e 36 49
e 40 49
e 5 50
e 12 50
e 25 50
e 35 50
e 43 50
e 44 50
e 49 50
e 2 51
e 4 51
e 8 51
e 17 51
e 18 51
e 30 51
e 36 51
e 38 51
e 49 51
e 8 52
e 11 52
e 12 52
e 14 52
e 17 52
e 26 52
e 27 52
e 30 52
e 32 52
e 33 52
e 38 52
e 40 52
e 9 53
e 10 53
e 12 53
e 13 53
e 16 53
e 21 53
e 22 53
e 29 53
e 36 53
e 42 53
e 43 53
e 48 53
e 52 53
e 1 54
e 16 54
e 18 54
e 28 54
e 37 54
e 39 54
e 44 54
e 45 54
e 52 54
e 1 55
e 2 55
e 6 55
e 15 55
e 29 55
e 30 55
e 31 55
e 33 55
e 39 55
e 41 55
e 42 55
e 46 55
e 48 55
e 49 55
e 54 55
e 2 56
e 6 56
e 9 56
e 13 56
e 19 56
e 21 56
e 23 56
e 27 56
e 29 56
e 34 56
e 35 56
e 37 56
e 42 56
e 47 56
e 52 56
e 54 56
e 55 56
e 2 57
e 5 57
e 7 57
e 10 57
e 15 57
e 25 57
e 29 57
e 38 57
e 42 57
e 43 57
e 44 57
e 46 57
e 51 57
e 56 57
e 3 58
e 13 58
e 17 58
e 29 58
e 47 58
e 48 58
e 49 58
e 9 59
e 10 59
e 11 59
e 24 59
e 25 59
e 26 59
e 27 59
e 33 59
e 36 59
e 44 59
e 50 59
e 52 59
e 53 59
e 56 59
e 4 60
e 16 60
e 21 60
e 24 60
e 26 60
e 29 60
e 30 60
e 32 60
e 46 60
e 48 60
e 56 60
e 57 60
e 1 61
e 2 61
e 6 61
e 11 61
e 15 61
e 16 61
e 25 61
e 30 61
e 31 61
e 36 61
e 37 61
e 40 61
e 44 61
e 52 61
e 54 61
e 56 61
e 59 61
e 60 61
e 9 62
e 14 62
e 15 62
e 16 62
e 19 62
e 39 62
e 42 62
e 47 62
e 48 62
e 50 62
e 51 62
e 54 62
e 55 62
e 58 62
e 1 63
e 2 63
e 16 63
e 19 63
e 28 63
e 32 63
e 33 63
e 35 63
e 36 63
e 42 63
e 48 63
e 53 63
e 2 64
e 5 64
e 9 64
e 15 64
e 19 64
e 39 64
e 40 64
e 43 64
e 44 64
e 51 64
e 56 64
e 11 65
e 19 65
e 28 65
e 35 65
e 40 65
e 44 65
e 46 65
e 50 65
e 52 65
e 53 65
e 54 65
e 56 65
e 60 65
e 8 66
e 22 66
e 23 66
e 24 66
e 26 66
e 28 66
e 32 66
e 34 66
e 37 66
e 49 66
e 51 66
e 55 66
e 57 66
e 62 66
e 64 66
e 6 67
e 14 67
e 30 67
e 37 67
e 42 67
e 43 67
e 47 67
e 49 67
e 55 67
e 57 67
e 58 67
e 61 67
e 63 67
e 2 68
e 10 68
e 12 68
e 20 68
e 25 68
e 30 68
e 42 68
e 43 68
e 45 68
e 48 68
e 51 68
e 53 68
e 58 68
e 2 69
e 3 69
e 4 69
e 6 69
e 13 69
e 16 69
e 20 69
e 25 69
e 36 69
e 51 69
e 53 69
e 55 69
e 58 69
e 59 69
e 62 69
e 23 70
e 29 70
e 30 70
e 35 70
e 36 70
e 38 70
e 54 70
e 55 70
e 10 71
e 12 71
e 19 71
e 24 71
e 29 71
e 35 71
e 46 71
e 53 71
e 58 71
e 1 72
e 5 72
e 13 72
e 14 72
e 18 72
e 20 72
e 34 72
e 45 72
e 48 72
e 52 72
e 11 73
e 19 73
e 21 73
e 25 73
e 27 73
e 29 73
e 31 73
e 32 73
e 34 73
e 38 73
e 53 73
e 54 73
e 8 74
e 9 74
e 10 74
e 16 74
e 38 74
e 44 74
e 47 74
e 48 74
e 49 74
e 52 74
e 56 74
e 58 74
e 2 75
e 7 75
e 11 75
e 19 75
e 20 75
e 22 75
e 45 75
e 46 75
e 65 75
e 66 75
e 67 75
e 74 75
e 3 76
e 4 76
e 6 76
e 9 76
e 11 76
e 17 76
e 33 76
e 35 76
e 44 76
e 50 76
e 56 76
e 57 76
e 61 76
e 62 76
e 67 76
e 71 76
e 72 76
e 75 76
e 3 77
e 8 77
e 10 77
e 11 77
e 14 77
e 21 77
e 28 77
e 32 77
e 35 77
e 36 77
e 41 77
e 43 77
e 50 77
e 55 77
e 58 77
e 67 77
e 68 77
e 69 77
e 70 77
e 74 77
e 2 78
e 3 78
e 5 78
e 9 78
e 11 78
e 12 78
e 13 78
e 20 78
e 21 78
e 26 78
e 27 78
e 29 78
e 38 78
e 44 78
e 45 78
e 49 78
e 57 78
e 64 78
e 65 78
e 66 78
e 68 78
e 12 79
e 34 79
e 35 79
e 39 79
e 54 79
e 57 79
e 62 79
e 74 79
e 78 79
e 3 80
e 5 80
e 7 80
e 8 80
e 23 80
e 24 80
e 26 80
e 29 80
e 30 80
e 31 80
e 33 80
e 47 80
e 48 80
e 51 80
e 52 80
e 59 80
e 67 80
e 69 80
e 74 80
e 75 80
e 77 80
e 79 80
